
        $ From http://www.csplib.org/Problems/prob009/data/helmut.pdf
        $ Problem number 131
        $ Sequence length : 25
        language ESSENCE' 1.0
        letting sizemaster be 412
        letting sizes be sequence(3,11,12,15,21,26,32,39,43,47,54,60,68,73,83,85,86,87,89,99,114,129,139,144,169)
        